p cnf 125 1034
-46 -47 0
-46 -48 0
-46 -49 0
-46 -50 0
-46 -51 0
-46 -52 0
-46 -53 0
-46 -54 0
-46 -55 0
-47 -48 0
-47 -49 0
-47 -50 0
-47 -51 0
-47 -52 0
-47 -53 0
-47 -54 0
-47 -55 0
-48 -49 0
-48 -50 0
-48 -51 0
-48 -52 0
-48 -53 0
-48 -54 0
-48 -55 0
-49 -50 0
-49 -51 0
-49 -52 0
-49 -53 0
-49 -54 0
-49 -55 0
-50 -51 0
-50 -52 0
-50 -53 0
-50 -54 0
-50 -55 0
-51 -52 0
-51 -53 0
-51 -54 0
-51 -55 0
-52 -53 0
-52 -54 0
-52 -55 0
-53 -54 0
-53 -55 0
-54 -55 0
46 47 48 49 50 51 52 53 54 55 0
-56 -57 0
-56 -58 0
-56 -59 0
-56 -60 0
-56 -61 0
-56 -62 0
-56 -63 0
-56 -64 0
-56 -65 0
-57 -58 0
-57 -59 0
-57 -60 0
-57 -61 0
-57 -62 0
-57 -63 0
-57 -64 0
-57 -65 0
-58 -59 0
-58 -60 0
-58 -61 0
-58 -62 0
-58 -63 0
-58 -64 0
-58 -65 0
-59 -60 0
-59 -61 0
-59 -62 0
-59 -63 0
-59 -64 0
-59 -65 0
-60 -61 0
-60 -62 0
-60 -63 0
-60 -64 0
-60 -65 0
-61 -62 0
-61 -63 0
-61 -64 0
-61 -65 0
-62 -63 0
-62 -64 0
-62 -65 0
-63 -64 0
-63 -65 0
-64 -65 0
56 57 58 59 60 61 62 63 64 65 0
-66 -67 0
-66 -68 0
-66 -69 0
-66 -70 0
-66 -71 0
-66 -72 0
-66 -73 0
-66 -74 0
-66 -75 0
-67 -68 0
-67 -69 0
-67 -70 0
-67 -71 0
-67 -72 0
-67 -73 0
-67 -74 0
-67 -75 0
-68 -69 0
-68 -70 0
-68 -71 0
-68 -72 0
-68 -73 0
-68 -74 0
-68 -75 0
-69 -70 0
-69 -71 0
-69 -72 0
-69 -73 0
-69 -74 0
-69 -75 0
-70 -71 0
-70 -72 0
-70 -73 0
-70 -74 0
-70 -75 0
-71 -72 0
-71 -73 0
-71 -74 0
-71 -75 0
-72 -73 0
-72 -74 0
-72 -75 0
-73 -74 0
-73 -75 0
-74 -75 0
66 67 68 69 70 71 72 73 74 75 0
-76 -77 0
-76 -78 0
-76 -79 0
-76 -80 0
-76 -81 0
-76 -82 0
-76 -83 0
-76 -84 0
-76 -85 0
-77 -78 0
-77 -79 0
-77 -80 0
-77 -81 0
-77 -82 0
-77 -83 0
-77 -84 0
-77 -85 0
-78 -79 0
-78 -80 0
-78 -81 0
-78 -82 0
-78 -83 0
-78 -84 0
-78 -85 0
-79 -80 0
-79 -81 0
-79 -82 0
-79 -83 0
-79 -84 0
-79 -85 0
-80 -81 0
-80 -82 0
-80 -83 0
-80 -84 0
-80 -85 0
-81 -82 0
-81 -83 0
-81 -84 0
-81 -85 0
-82 -83 0
-82 -84 0
-82 -85 0
-83 -84 0
-83 -85 0
-84 -85 0
76 77 78 79 80 81 82 83 84 85 0
-46 -56 0
-46 -66 0
-46 -76 0
-56 -66 0
-56 -76 0
-66 -76 0
-47 -57 0
-47 -67 0
-47 -77 0
-57 -67 0
-57 -77 0
-67 -77 0
-48 -58 0
-48 -68 0
-48 -78 0
-58 -68 0
-58 -78 0
-68 -78 0
-49 -59 0
-49 -69 0
-49 -79 0
-59 -69 0
-59 -79 0
-69 -79 0
-50 -60 0
-50 -70 0
-50 -80 0
-60 -70 0
-60 -80 0
-70 -80 0
-51 -61 0
-51 -71 0
-51 -81 0
-61 -71 0
-61 -81 0
-71 -81 0
-52 -62 0
-52 -72 0
-52 -82 0
-62 -72 0
-62 -82 0
-72 -82 0
-53 -63 0
-53 -73 0
-53 -83 0
-63 -73 0
-63 -83 0
-73 -83 0
-54 -64 0
-54 -74 0
-54 -84 0
-64 -74 0
-64 -84 0
-74 -84 0
-55 -65 0
-55 -75 0
-55 -85 0
-65 -75 0
-65 -85 0
-75 -85 0
1 -46 -57 0
1 -46 -67 0
1 -46 -77 0
1 -56 -47 0
1 -56 -67 0
1 -56 -77 0
1 -66 -47 0
1 -66 -57 0
1 -66 -77 0
1 -76 -47 0
1 -76 -57 0
1 -76 -67 0
2 -46 -58 0
2 -46 -68 0
2 -46 -78 0
2 -56 -48 0
2 -56 -68 0
2 -56 -78 0
2 -66 -48 0
2 -66 -58 0
2 -66 -78 0
2 -76 -48 0
2 -76 -58 0
2 -76 -68 0
3 -46 -59 0
3 -46 -69 0
3 -46 -79 0
3 -56 -49 0
3 -56 -69 0
3 -56 -79 0
3 -66 -49 0
3 -66 -59 0
3 -66 -79 0
3 -76 -49 0
3 -76 -59 0
3 -76 -69 0
4 -46 -60 0
4 -46 -70 0
4 -46 -80 0
4 -56 -50 0
4 -56 -70 0
4 -56 -80 0
4 -66 -50 0
4 -66 -60 0
4 -66 -80 0
4 -76 -50 0
4 -76 -60 0
4 -76 -70 0
5 -46 -61 0
5 -46 -71 0
5 -46 -81 0
5 -56 -51 0
5 -56 -71 0
5 -56 -81 0
5 -66 -51 0
5 -66 -61 0
5 -66 -81 0
5 -76 -51 0
5 -76 -61 0
5 -76 -71 0
6 -46 -62 0
6 -46 -72 0
6 -46 -82 0
6 -56 -52 0
6 -56 -72 0
6 -56 -82 0
6 -66 -52 0
6 -66 -62 0
6 -66 -82 0
6 -76 -52 0
6 -76 -62 0
6 -76 -72 0
7 -46 -63 0
7 -46 -73 0
7 -46 -83 0
7 -56 -53 0
7 -56 -73 0
7 -56 -83 0
7 -66 -53 0
7 -66 -63 0
7 -66 -83 0
7 -76 -53 0
7 -76 -63 0
7 -76 -73 0
8 -46 -64 0
8 -46 -74 0
8 -46 -84 0
8 -56 -54 0
8 -56 -74 0
8 -56 -84 0
8 -66 -54 0
8 -66 -64 0
8 -66 -84 0
8 -76 -54 0
8 -76 -64 0
8 -76 -74 0
9 -46 -65 0
9 -46 -75 0
9 -46 -85 0
9 -56 -55 0
9 -56 -75 0
9 -56 -85 0
9 -66 -55 0
9 -66 -65 0
9 -66 -85 0
9 -76 -55 0
9 -76 -65 0
9 -76 -75 0
10 -47 -58 0
10 -47 -68 0
10 -47 -78 0
10 -57 -48 0
10 -57 -68 0
10 -57 -78 0
10 -67 -48 0
10 -67 -58 0
10 -67 -78 0
10 -77 -48 0
10 -77 -58 0
10 -77 -68 0
11 -47 -59 0
11 -47 -69 0
11 -47 -79 0
11 -57 -49 0
11 -57 -69 0
11 -57 -79 0
11 -67 -49 0
11 -67 -59 0
11 -67 -79 0
11 -77 -49 0
11 -77 -59 0
11 -77 -69 0
12 -47 -60 0
12 -47 -70 0
12 -47 -80 0
12 -57 -50 0
12 -57 -70 0
12 -57 -80 0
12 -67 -50 0
12 -67 -60 0
12 -67 -80 0
12 -77 -50 0
12 -77 -60 0
12 -77 -70 0
13 -47 -61 0
13 -47 -71 0
13 -47 -81 0
13 -57 -51 0
13 -57 -71 0
13 -57 -81 0
13 -67 -51 0
13 -67 -61 0
13 -67 -81 0
13 -77 -51 0
13 -77 -61 0
13 -77 -71 0
14 -47 -62 0
14 -47 -72 0
14 -47 -82 0
14 -57 -52 0
14 -57 -72 0
14 -57 -82 0
14 -67 -52 0
14 -67 -62 0
14 -67 -82 0
14 -77 -52 0
14 -77 -62 0
14 -77 -72 0
15 -47 -63 0
15 -47 -73 0
15 -47 -83 0
15 -57 -53 0
15 -57 -73 0
15 -57 -83 0
15 -67 -53 0
15 -67 -63 0
15 -67 -83 0
15 -77 -53 0
15 -77 -63 0
15 -77 -73 0
16 -47 -64 0
16 -47 -74 0
16 -47 -84 0
16 -57 -54 0
16 -57 -74 0
16 -57 -84 0
16 -67 -54 0
16 -67 -64 0
16 -67 -84 0
16 -77 -54 0
16 -77 -64 0
16 -77 -74 0
17 -47 -65 0
17 -47 -75 0
17 -47 -85 0
17 -57 -55 0
17 -57 -75 0
17 -57 -85 0
17 -67 -55 0
17 -67 -65 0
17 -67 -85 0
17 -77 -55 0
17 -77 -65 0
17 -77 -75 0
18 -48 -59 0
18 -48 -69 0
18 -48 -79 0
18 -58 -49 0
18 -58 -69 0
18 -58 -79 0
18 -68 -49 0
18 -68 -59 0
18 -68 -79 0
18 -78 -49 0
18 -78 -59 0
18 -78 -69 0
19 -48 -60 0
19 -48 -70 0
19 -48 -80 0
19 -58 -50 0
19 -58 -70 0
19 -58 -80 0
19 -68 -50 0
19 -68 -60 0
19 -68 -80 0
19 -78 -50 0
19 -78 -60 0
19 -78 -70 0
20 -48 -61 0
20 -48 -71 0
20 -48 -81 0
20 -58 -51 0
20 -58 -71 0
20 -58 -81 0
20 -68 -51 0
20 -68 -61 0
20 -68 -81 0
20 -78 -51 0
20 -78 -61 0
20 -78 -71 0
21 -48 -62 0
21 -48 -72 0
21 -48 -82 0
21 -58 -52 0
21 -58 -72 0
21 -58 -82 0
21 -68 -52 0
21 -68 -62 0
21 -68 -82 0
21 -78 -52 0
21 -78 -62 0
21 -78 -72 0
22 -48 -63 0
22 -48 -73 0
22 -48 -83 0
22 -58 -53 0
22 -58 -73 0
22 -58 -83 0
22 -68 -53 0
22 -68 -63 0
22 -68 -83 0
22 -78 -53 0
22 -78 -63 0
22 -78 -73 0
23 -48 -64 0
23 -48 -74 0
23 -48 -84 0
23 -58 -54 0
23 -58 -74 0
23 -58 -84 0
23 -68 -54 0
23 -68 -64 0
23 -68 -84 0
23 -78 -54 0
23 -78 -64 0
23 -78 -74 0
24 -48 -65 0
24 -48 -75 0
24 -48 -85 0
24 -58 -55 0
24 -58 -75 0
24 -58 -85 0
24 -68 -55 0
24 -68 -65 0
24 -68 -85 0
24 -78 -55 0
24 -78 -65 0
24 -78 -75 0
25 -49 -60 0
25 -49 -70 0
25 -49 -80 0
25 -59 -50 0
25 -59 -70 0
25 -59 -80 0
25 -69 -50 0
25 -69 -60 0
25 -69 -80 0
25 -79 -50 0
25 -79 -60 0
25 -79 -70 0
26 -49 -61 0
26 -49 -71 0
26 -49 -81 0
26 -59 -51 0
26 -59 -71 0
26 -59 -81 0
26 -69 -51 0
26 -69 -61 0
26 -69 -81 0
26 -79 -51 0
26 -79 -61 0
26 -79 -71 0
27 -49 -62 0
27 -49 -72 0
27 -49 -82 0
27 -59 -52 0
27 -59 -72 0
27 -59 -82 0
27 -69 -52 0
27 -69 -62 0
27 -69 -82 0
27 -79 -52 0
27 -79 -62 0
27 -79 -72 0
28 -49 -63 0
28 -49 -73 0
28 -49 -83 0
28 -59 -53 0
28 -59 -73 0
28 -59 -83 0
28 -69 -53 0
28 -69 -63 0
28 -69 -83 0
28 -79 -53 0
28 -79 -63 0
28 -79 -73 0
29 -49 -64 0
29 -49 -74 0
29 -49 -84 0
29 -59 -54 0
29 -59 -74 0
29 -59 -84 0
29 -69 -54 0
29 -69 -64 0
29 -69 -84 0
29 -79 -54 0
29 -79 -64 0
29 -79 -74 0
30 -49 -65 0
30 -49 -75 0
30 -49 -85 0
30 -59 -55 0
30 -59 -75 0
30 -59 -85 0
30 -69 -55 0
30 -69 -65 0
30 -69 -85 0
30 -79 -55 0
30 -79 -65 0
30 -79 -75 0
31 -50 -61 0
31 -50 -71 0
31 -50 -81 0
31 -60 -51 0
31 -60 -71 0
31 -60 -81 0
31 -70 -51 0
31 -70 -61 0
31 -70 -81 0
31 -80 -51 0
31 -80 -61 0
31 -80 -71 0
32 -50 -62 0
32 -50 -72 0
32 -50 -82 0
32 -60 -52 0
32 -60 -72 0
32 -60 -82 0
32 -70 -52 0
32 -70 -62 0
32 -70 -82 0
32 -80 -52 0
32 -80 -62 0
32 -80 -72 0
33 -50 -63 0
33 -50 -73 0
33 -50 -83 0
33 -60 -53 0
33 -60 -73 0
33 -60 -83 0
33 -70 -53 0
33 -70 -63 0
33 -70 -83 0
33 -80 -53 0
33 -80 -63 0
33 -80 -73 0
34 -50 -64 0
34 -50 -74 0
34 -50 -84 0
34 -60 -54 0
34 -60 -74 0
34 -60 -84 0
34 -70 -54 0
34 -70 -64 0
34 -70 -84 0
34 -80 -54 0
34 -80 -64 0
34 -80 -74 0
35 -50 -65 0
35 -50 -75 0
35 -50 -85 0
35 -60 -55 0
35 -60 -75 0
35 -60 -85 0
35 -70 -55 0
35 -70 -65 0
35 -70 -85 0
35 -80 -55 0
35 -80 -65 0
35 -80 -75 0
36 -51 -62 0
36 -51 -72 0
36 -51 -82 0
36 -61 -52 0
36 -61 -72 0
36 -61 -82 0
36 -71 -52 0
36 -71 -62 0
36 -71 -82 0
36 -81 -52 0
36 -81 -62 0
36 -81 -72 0
37 -51 -63 0
37 -51 -73 0
37 -51 -83 0
37 -61 -53 0
37 -61 -73 0
37 -61 -83 0
37 -71 -53 0
37 -71 -63 0
37 -71 -83 0
37 -81 -53 0
37 -81 -63 0
37 -81 -73 0
38 -51 -64 0
38 -51 -74 0
38 -51 -84 0
38 -61 -54 0
38 -61 -74 0
38 -61 -84 0
38 -71 -54 0
38 -71 -64 0
38 -71 -84 0
38 -81 -54 0
38 -81 -64 0
38 -81 -74 0
39 -51 -65 0
39 -51 -75 0
39 -51 -85 0
39 -61 -55 0
39 -61 -75 0
39 -61 -85 0
39 -71 -55 0
39 -71 -65 0
39 -71 -85 0
39 -81 -55 0
39 -81 -65 0
39 -81 -75 0
40 -52 -63 0
40 -52 -73 0
40 -52 -83 0
40 -62 -53 0
40 -62 -73 0
40 -62 -83 0
40 -72 -53 0
40 -72 -63 0
40 -72 -83 0
40 -82 -53 0
40 -82 -63 0
40 -82 -73 0
41 -52 -64 0
41 -52 -74 0
41 -52 -84 0
41 -62 -54 0
41 -62 -74 0
41 -62 -84 0
41 -72 -54 0
41 -72 -64 0
41 -72 -84 0
41 -82 -54 0
41 -82 -64 0
41 -82 -74 0
42 -52 -65 0
42 -52 -75 0
42 -52 -85 0
42 -62 -55 0
42 -62 -75 0
42 -62 -85 0
42 -72 -55 0
42 -72 -65 0
42 -72 -85 0
42 -82 -55 0
42 -82 -65 0
42 -82 -75 0
43 -53 -64 0
43 -53 -74 0
43 -53 -84 0
43 -63 -54 0
43 -63 -74 0
43 -63 -84 0
43 -73 -54 0
43 -73 -64 0
43 -73 -84 0
43 -83 -54 0
43 -83 -64 0
43 -83 -74 0
44 -53 -65 0
44 -53 -75 0
44 -53 -85 0
44 -63 -55 0
44 -63 -75 0
44 -63 -85 0
44 -73 -55 0
44 -73 -65 0
44 -73 -85 0
44 -83 -55 0
44 -83 -65 0
44 -83 -75 0
45 -54 -65 0
45 -54 -75 0
45 -54 -85 0
45 -64 -55 0
45 -64 -75 0
45 -64 -85 0
45 -74 -55 0
45 -74 -65 0
45 -74 -85 0
45 -84 -55 0
45 -84 -65 0
45 -84 -75 0
-86 -87 0
-86 -88 0
-86 -89 0
-87 -88 0
-87 -89 0
-88 -89 0
86 87 88 89 0
-90 -91 0
-90 -92 0
-90 -93 0
-91 -92 0
-91 -93 0
-92 -93 0
90 91 92 93 0
-94 -95 0
-94 -96 0
-94 -97 0
-95 -96 0
-95 -97 0
-96 -97 0
94 95 96 97 0
-98 -99 0
-98 -100 0
-98 -101 0
-99 -100 0
-99 -101 0
-100 -101 0
98 99 100 101 0
-102 -103 0
-102 -104 0
-102 -105 0
-103 -104 0
-103 -105 0
-104 -105 0
102 103 104 105 0
-106 -107 0
-106 -108 0
-106 -109 0
-107 -108 0
-107 -109 0
-108 -109 0
106 107 108 109 0
-110 -111 0
-110 -112 0
-110 -113 0
-111 -112 0
-111 -113 0
-112 -113 0
110 111 112 113 0
-114 -115 0
-114 -116 0
-114 -117 0
-115 -116 0
-115 -117 0
-116 -117 0
114 115 116 117 0
-118 -119 0
-118 -120 0
-118 -121 0
-119 -120 0
-119 -121 0
-120 -121 0
118 119 120 121 0
-122 -123 0
-122 -124 0
-122 -125 0
-123 -124 0
-123 -125 0
-124 -125 0
122 123 124 125 0
-1 -86 -90 0
-1 -87 -91 0
-1 -88 -92 0
-1 -89 -93 0
-2 -86 -94 0
-2 -87 -95 0
-2 -88 -96 0
-2 -89 -97 0
-3 -86 -98 0
-3 -87 -99 0
-3 -88 -100 0
-3 -89 -101 0
-4 -86 -102 0
-4 -87 -103 0
-4 -88 -104 0
-4 -89 -105 0
-5 -86 -106 0
-5 -87 -107 0
-5 -88 -108 0
-5 -89 -109 0
-6 -86 -110 0
-6 -87 -111 0
-6 -88 -112 0
-6 -89 -113 0
-7 -86 -114 0
-7 -87 -115 0
-7 -88 -116 0
-7 -89 -117 0
-8 -86 -118 0
-8 -87 -119 0
-8 -88 -120 0
-8 -89 -121 0
-9 -86 -122 0
-9 -87 -123 0
-9 -88 -124 0
-9 -89 -125 0
-10 -90 -94 0
-10 -91 -95 0
-10 -92 -96 0
-10 -93 -97 0
-11 -90 -98 0
-11 -91 -99 0
-11 -92 -100 0
-11 -93 -101 0
-12 -90 -102 0
-12 -91 -103 0
-12 -92 -104 0
-12 -93 -105 0
-13 -90 -106 0
-13 -91 -107 0
-13 -92 -108 0
-13 -93 -109 0
-14 -90 -110 0
-14 -91 -111 0
-14 -92 -112 0
-14 -93 -113 0
-15 -90 -114 0
-15 -91 -115 0
-15 -92 -116 0
-15 -93 -117 0
-16 -90 -118 0
-16 -91 -119 0
-16 -92 -120 0
-16 -93 -121 0
-17 -90 -122 0
-17 -91 -123 0
-17 -92 -124 0
-17 -93 -125 0
-18 -94 -98 0
-18 -95 -99 0
-18 -96 -100 0
-18 -97 -101 0
-19 -94 -102 0
-19 -95 -103 0
-19 -96 -104 0
-19 -97 -105 0
-20 -94 -106 0
-20 -95 -107 0
-20 -96 -108 0
-20 -97 -109 0
-21 -94 -110 0
-21 -95 -111 0
-21 -96 -112 0
-21 -97 -113 0
-22 -94 -114 0
-22 -95 -115 0
-22 -96 -116 0
-22 -97 -117 0
-23 -94 -118 0
-23 -95 -119 0
-23 -96 -120 0
-23 -97 -121 0
-24 -94 -122 0
-24 -95 -123 0
-24 -96 -124 0
-24 -97 -125 0
-25 -98 -102 0
-25 -99 -103 0
-25 -100 -104 0
-25 -101 -105 0
-26 -98 -106 0
-26 -99 -107 0
-26 -100 -108 0
-26 -101 -109 0
-27 -98 -110 0
-27 -99 -111 0
-27 -100 -112 0
-27 -101 -113 0
-28 -98 -114 0
-28 -99 -115 0
-28 -100 -116 0
-28 -101 -117 0
-29 -98 -118 0
-29 -99 -119 0
-29 -100 -120 0
-29 -101 -121 0
-30 -98 -122 0
-30 -99 -123 0
-30 -100 -124 0
-30 -101 -125 0
-31 -102 -106 0
-31 -103 -107 0
-31 -104 -108 0
-31 -105 -109 0
-32 -102 -110 0
-32 -103 -111 0
-32 -104 -112 0
-32 -105 -113 0
-33 -102 -114 0
-33 -103 -115 0
-33 -104 -116 0
-33 -105 -117 0
-34 -102 -118 0
-34 -103 -119 0
-34 -104 -120 0
-34 -105 -121 0
-35 -102 -122 0
-35 -103 -123 0
-35 -104 -124 0
-35 -105 -125 0
-36 -106 -110 0
-36 -107 -111 0
-36 -108 -112 0
-36 -109 -113 0
-37 -106 -114 0
-37 -107 -115 0
-37 -108 -116 0
-37 -109 -117 0
-38 -106 -118 0
-38 -107 -119 0
-38 -108 -120 0
-38 -109 -121 0
-39 -106 -122 0
-39 -107 -123 0
-39 -108 -124 0
-39 -109 -125 0
-40 -110 -114 0
-40 -111 -115 0
-40 -112 -116 0
-40 -113 -117 0
-41 -110 -118 0
-41 -111 -119 0
-41 -112 -120 0
-41 -113 -121 0
-42 -110 -122 0
-42 -111 -123 0
-42 -112 -124 0
-42 -113 -125 0
-43 -114 -118 0
-43 -115 -119 0
-43 -116 -120 0
-43 -117 -121 0
-44 -114 -122 0
-44 -115 -123 0
-44 -116 -124 0
-44 -117 -125 0
-45 -118 -122 0
-45 -119 -123 0
-45 -120 -124 0
-45 -121 -125 0